# Components (V)
1 2 3 4 5 6 7 8 9 10 11 12 13 14 15 16 17 18 19 20 21 22 23 24 25 26 27 28 29 30 31 32 33 34 35 36 37 38 39 40 41 42 43 44 45 46 47 48 49 50 51 52 53 54 55 56 57 58 59 60 61 62 63 64 65 66 67 68 69 70 71 72 73 74 75 76 77 78 79 80 81 82 83 84 85 86 87 88 89 90 91 92 93 94 95 96 97 98 99 100 101 102 103 104 105 106 107 108 109 110 111 112 113 114 115 116 117 118 119 120 121 122 123 124 125 126 127 128 129 130 131 132 133 134 135 136 137 138 139 140 141 142 143 144 145 146 147 148 149 150 151 152 153 154 155 156 157 158 159 160 161 162 163 164 165 166 167 168 169 170 171 172 173 174 175 176 177 178 179 180 181 182 183 184 185 186 187 188 189 190 191 192 193 194 195 196 197 198 199 200 201 202 203 204 205 206 207 208 209 210 211 212 213 214 215 216 217 218 219 220 221 222 223 224 225 226 227 228 229 230 231 232 233 234 235 236 237 238 239 240 241 242 243 244 245 246 247 248 249 250 251 252 253 254 255 256 257 258 259 260 261 262 263 264 265 266 267 268 269 270 271 272 273 274 275 276 277 278 279 280 281 282 283 284 285 286 287 288 289 290 291 292 293 294 295 296 297 298 299 300 301 302 303 304 305 306 307 308 309 310 311 312 313 314 315 316 317 318 319 320 321 322 323 324 325 326 327 328 329 330 331 332 333 334 335 336 337 338 339 340 341 342 343 344 345 346 347 348 349 350 351 352 353 354 355 356 357 358 359 360 361 362 363 364 365 366 367 368 369

# Precedence arcs (E)
1 153
2 153
3 153
4 226
5 63
6 63
7 257
8 308
9 158
11 24
11 27
11 34
12 30
13 39
14 40
15 33
17 25
17 32
18 36
18 38
19 23
19 26
20 31
20 35
20 37
21 28
22 29
23 153
24 226
25 63
26 63
27 63
28 63
29 257
30 158
31 52
32 45
32 60
33 42
33 49
33 53
33 54
33 99
34 41
34 51
34 59
35 57
36 43
37 46
37 48
37 56
38 47
38 50
38 58
39 44
39 55
41 226
42 226
43 63
44 257
46 62
47 61
47 65
47 76
49 69
53 66
53 74
54 73
55 71
56 67
57 72
59 68
59 70
59 240
60 64
60 75
61 153
62 153
63 78
63 79
63 80
63 81
63 82
63 83
64 158
65 158
67 90
68 88
68 92
68 95
68 96
69 91
70 86
70 98
71 84
71 93
71 94
72 87
72 97
73 85
75 77
76 89
77 153
78 101
78 109
80 111
81 112
81 116
81 320
85 102
86 117
87 103
89 115
89 162
90 104
90 105
90 106
92 113
94 100
94 110
94 114
97 107
98 99
98 108
99 153
101 158
103 128
103 129
104 124
104 125
106 120
106 127
109 119
109 131
110 118
111 121
111 130
112 122
115 123
117 126
118 153
119 226
121 158
122 141
122 143
123 133
123 138
123 142
123 145
124 151
125 134
125 150
126 132
126 136
126 139
126 152
127 148
127 149
129 137
129 147
130 146
131 135
131 140
131 144
132 153
133 226
136 308
137 158
138 158
139 168
141 155
141 161
144 154
144 164
145 156
145 159
146 163
147 162
147 166
148 160
149 157
151 167
152 165
153 169
153 170
153 171
153 172
153 173
153 174
153 187
154 226
158 175
158 176
158 177
158 178
158 179
158 180
158 186
159 181
162 184
162 185
163 182
163 183
167 188
169 191
169 193
169 201
172 199
172 208
172 209
174 197
178 200
179 206
179 207
181 189
181 194
181 302
182 190
183 196
184 192
185 195
187 198
187 202
187 203
188 204
188 205
189 226
190 308
197 220
197 223
198 210
200 215
201 213
201 219
202 217
202 221
203 225
204 224
205 216
205 222
206 212
207 214
209 211
209 218
210 226
211 308
213 230
213 231
213 232
213 238
213 247
216 240
216 243
217 242
218 244
219 227
220 234
220 236
222 229
222 233
222 235
222 237
222 239
222 241
223 246
223 248
225 228
225 245
225 337
226 249
226 250
226 251
226 252
226 253
226 254
226 255
226 256
227 257
230 261
230 267
231 258
233 270
234 263
234 269
239 262
239 265
240 259
241 266
242 264
243 271
248 260
248 268
251 282
252 278
252 284
254 279
255 283
257 272
257 273
257 274
257 275
257 276
257 285
259 287
264 288
265 286
266 280
267 361
269 281
269 289
270 277
271 319
274 294
274 299
275 290
275 291
278 301
280 296
280 305
281 300
282 293
282 295
285 297
286 302
287 292
288 303
288 306
289 298
289 304
290 308
293 319
295 310
296 313
297 311
297 322
298 309
298 314
298 318
301 312
301 321
302 315
304 320
305 316
305 317
306 307
308 324
308 325
308 326
308 327
308 328
309 332
309 338
311 323
311 330
312 331
312 336
313 333
314 329
316 339
316 341
322 334
322 335
322 337
322 340
325 352
326 346
327 342
328 347
330 344
331 348
333 343
333 351
333 357
334 349
335 353
339 345
339 355
339 356
340 350
341 354
343 358
345 366
350 360
350 363
350 367
350 369
351 364
353 359
354 365
356 361
357 362
357 368

# Target components (T)
253 134 276

# Revenues (r)
1 26
2 30
3 26
4 29
5 30
6 27
7 25
8 29
9 23
10 26
11 24
12 30
13 22
14 23
15 23
16 27
17 25
18 26
19 28
20 20
21 28
22 27
23 28
24 20
25 30
26 22
27 23
28 25
29 29
30 25
31 23
32 20
33 24
34 22
35 29
36 21
37 29
38 26
39 30
40 22
41 30
42 28
43 26
44 28
45 25
46 24
47 29
48 27
49 26
50 23
51 26
52 24
53 30
54 23
55 28
56 24
57 30
58 30
59 25
60 24
61 25
62 20
63 23
64 24
65 28
66 22
67 30
68 30
69 22
70 23
71 21
72 27
73 25
74 26
75 21
76 26
77 26
78 28
79 27
80 20
81 28
82 22
83 27
84 28
85 21
86 24
87 29
88 22
89 24
90 26
91 20
92 24
93 24
94 28
95 27
96 28
97 27
98 20
99 28
100 22
101 30
102 21
103 23
104 28
105 26
106 24
107 26
108 23
109 21
110 30
111 25
112 29
113 22
114 20
115 27
116 29
117 30
118 25
119 20
120 29
121 24
122 20
123 24
124 24
125 28
126 20
127 27
128 27
129 23
130 24
131 25
132 25
133 29
134 29
135 25
136 21
137 20
138 28
139 28
140 20
141 30
142 27
143 27
144 27
145 24
146 26
147 29
148 27
149 28
150 27
151 23
152 27
153 22
154 25
155 20
156 30
157 20
158 26
159 20
160 22
161 22
162 23
163 21
164 22
165 27
166 23
167 20
168 29
169 30
170 27
171 23
172 30
173 30
174 24
175 26
176 23
177 21
178 25
179 26
180 20
181 27
182 20
183 28
184 30
185 27
186 25
187 22
188 23
189 27
190 24
191 24
192 30
193 25
194 20
195 24
196 29
197 27
198 25
199 28
200 30
201 27
202 23
203 21
204 30
205 25
206 24
207 27
208 25
209 20
210 30
211 29
212 24
213 28
214 28
215 20
216 28
217 20
218 27
219 29
220 30
221 29
222 24
223 25
224 25
225 25
226 20
227 27
228 23
229 20
230 25
231 28
232 25
233 26
234 20
235 20
236 24
237 22
238 21
239 21
240 21
241 20
242 26
243 23
244 24
245 22
246 26
247 23
248 28
249 23
250 30
251 21
252 30
253 21
254 20
255 28
256 25
257 24
258 26
259 25
260 21
261 30
262 21
263 21
264 30
265 21
266 24
267 26
268 22
269 22
270 20
271 20
272 21
273 20
274 25
275 24
276 22
277 25
278 30
279 26
280 30
281 30
282 29
283 24
284 29
285 22
286 22
287 26
288 30
289 29
290 22
291 26
292 24
293 28
294 27
295 25
296 25
297 25
298 30
299 27
300 29
301 25
302 20
303 20
304 23
305 22
306 20
307 24
308 21
309 25
310 24
311 21
312 23
313 30
314 20
315 22
316 28
317 29
318 22
319 26
320 26
321 21
322 23
323 24
324 29
325 27
326 25
327 23
328 24
329 20
330 21
331 27
332 25
333 28
334 21
335 29
336 26
337 24
338 20
339 30
340 29
341 23
342 30
343 20
344 21
345 29
346 30
347 23
348 20
349 28
350 29
351 24
352 26
353 29
354 22
355 23
356 22
357 25
358 24
359 27
360 22
361 30
362 28
363 22
364 23
365 23
366 29
367 29
368 25
369 23

# Costs (c)
1 6
2 3
3 4
4 3
5 10
6 6
7 1
8 8
9 3
10 4
11 5
12 6
13 5
14 5
15 2
16 2
17 10
18 6
19 4
20 7
21 5
22 9
23 7
24 7
25 1
26 4
27 8
28 5
29 3
30 4
31 10
32 9
33 7
34 2
35 1
36 4
37 9
38 9
39 9
40 5
41 1
42 6
43 3
44 1
45 6
46 5
47 5
48 3
49 10
50 9
51 2
52 3
53 1
54 7
55 6
56 1
57 5
58 10
59 3
60 4
61 3
62 8
63 1
64 4
65 6
66 8
67 7
68 2
69 5
70 10
71 6
72 6
73 1
74 5
75 1
76 7
77 2
78 3
79 3
80 8
81 9
82 2
83 8
84 6
85 1
86 3
87 10
88 4
89 5
90 5
91 3
92 1
93 4
94 10
95 5
96 3
97 5
98 2
99 7
100 3
101 6
102 8
103 2
104 6
105 9
106 2
107 7
108 5
109 10
110 10
111 9
112 2
113 4
114 4
115 8
116 6
117 6
118 6
119 6
120 5
121 2
122 9
123 7
124 1
125 6
126 2
127 7
128 1
129 5
130 5
131 5
132 5
133 10
134 8
135 3
136 8
137 8
138 9
139 9
140 5
141 10
142 1
143 2
144 4
145 9
146 6
147 6
148 5
149 8
150 7
151 4
152 9
153 8
154 1
155 10
156 2
157 6
158 3
159 7
160 1
161 1
162 4
163 5
164 8
165 3
166 10
167 3
168 8
169 6
170 6
171 3
172 1
173 10
174 4
175 8
176 10
177 2
178 3
179 10
180 5
181 10
182 1
183 1
184 7
185 2
186 2
187 7
188 7
189 10
190 9
191 1
192 1
193 8
194 7
195 1
196 8
197 5
198 1
199 2
200 10
201 8
202 10
203 7
204 1
205 4
206 1
207 3
208 6
209 3
210 5
211 9
212 7
213 6
214 3
215 2
216 3
217 6
218 9
219 4
220 7
221 2
222 6
223 7
224 4
225 7
226 4
227 1
228 2
229 5
230 2
231 5
232 5
233 7
234 10
235 9
236 1
237 6
238 1
239 1
240 6
241 3
242 7
243 8
244 2
245 4
246 7
247 8
248 4
249 7
250 6
251 6
252 2
253 6
254 2
255 3
256 10
257 7
258 5
259 8
260 9
261 9
262 9
263 4
264 8
265 3
266 4
267 4
268 1
269 3
270 1
271 8
272 3
273 10
274 5
275 3
276 2
277 9
278 6
279 1
280 5
281 8
282 7
283 2
284 8
285 7
286 10
287 3
288 3
289 10
290 9
291 10
292 9
293 5
294 9
295 1
296 1
297 6
298 2
299 10
300 1
301 10
302 5
303 9
304 3
305 3
306 10
307 5
308 3
309 9
310 4
311 10
312 1
313 2
314 10
315 3
316 5
317 9
318 7
319 8
320 7
321 2
322 1
323 2
324 4
325 3
326 1
327 9
328 8
329 2
330 9
331 7
332 2
333 3
334 8
335 7
336 4
337 8
338 9
339 5
340 4
341 6
342 9
343 3
344 8
345 5
346 1
347 4
348 4
349 3
350 7
351 5
352 1
353 5
354 9
355 5
356 5
357 10
358 6
359 5
360 8
361 8
362 6
363 3
364 4
365 9
366 9
367 5
368 2
369 9

# Durations (p)
1 212
2 173
3 219
4 293
5 211
6 156
7 68
8 197
9 226
10 115
11 52
12 251
13 158
14 22
15 266
16 161
17 149
18 202
19 34
20 54
21 105
22 94
23 29
24 195
25 208
26 270
27 237
28 124
29 279
30 96
31 255
32 159
33 147
34 120
35 131
36 81
37 118
38 26
39 104
40 235
41 158
42 53
43 53
44 89
45 167
46 219
47 146
48 75
49 27
50 144
51 86
52 154
53 228
54 52
55 81
56 55
57 217
58 201
59 66
60 278
61 75
62 151
63 150
64 171
65 180
66 139
67 118
68 56
69 153
70 165
71 92
72 38
73 78
74 66
75 60
76 86
77 85
78 253
79 65
80 25
81 243
82 46
83 118
84 63
85 113
86 131
87 37
88 330
89 217
90 141
91 94
92 101
93 180
94 100
95 252
96 26
97 163
98 82
99 138
100 255
101 95
102 194
103 117
104 124
105 231
106 158
107 51
108 51
109 127
110 46
111 46
112 88
113 188
114 113
115 259
116 55
117 206
118 202
119 195
120 97
121 143
122 104
123 149
124 152
125 138
126 196
127 103
128 200
129 91
130 53
131 190
132 463
133 212
134 75
135 148
136 143
137 33
138 141
139 102
140 67
141 36
142 119
143 72
144 98
145 70
146 28
147 364
148 139
149 228
150 158
151 49
152 205
153 56
154 97
155 255
156 124
157 161
158 25
159 100
160 59
161 182
162 63
163 80
164 44
165 236
166 103
167 31
168 98
169 192
170 33
171 320
172 104
173 22
174 187
175 66
176 116
177 198
178 117
179 66
180 50
181 181
182 230
183 130
184 126
185 159
186 101
187 165
188 66
189 21
190 144
191 64
192 173
193 72
194 167
195 30
196 49
197 91
198 145
199 176
200 268
201 23
202 147
203 296
204 118
205 35
206 176
207 261
208 274
209 232
210 181
211 284
212 119
213 206
214 68
215 180
216 52
217 35
218 243
219 203
220 234
221 28
222 44
223 332
224 185
225 174
226 101
227 86
228 67
229 78
230 151
231 70
232 146
233 38
234 192
235 299
236 45
237 268
238 109
239 142
240 157
241 94
242 51
243 90
244 128
245 157
246 120
247 90
248 231
249 133
250 78
251 125
252 188
253 212
254 24
255 51
256 130
257 48
258 138
259 185
260 236
261 92
262 161
263 133
264 73
265 98
266 44
267 141
268 131
269 81
270 60
271 65
272 153
273 210
274 32
275 108
276 305
277 189
278 107
279 67
280 105
281 208
282 204
283 170
284 62
285 103
286 140
287 78
288 92
289 90
290 54
291 268
292 132
293 30
294 210
295 188
296 69
297 112
298 59
299 282
300 231
301 67
302 81
303 99
304 123
305 267
306 298
307 91
308 104
309 102
310 113
311 40
312 34
313 45
314 109
315 113
316 118
317 259
318 151
319 45
320 261
321 47
322 60
323 32
324 31
325 89
326 215
327 255
328 234
329 173
330 116
331 91
332 78
333 52
334 147
335 131
336 23
337 174
338 164
339 155
340 161
341 127
342 50
343 49
344 50
345 37
346 205
347 151
348 123
349 153
350 174
351 127
352 160
353 61
354 95
355 84
356 156
357 162
358 73
359 186
360 164
361 208
362 106
363 31
364 337
365 230
366 244
367 179
368 130
369 37

orderrules
1 153 au000 avant au152
2 153 au001 avant au152
3 153 au002 avant au152
4 226 au003 avant au225
5 63 au004 avant au062
6 63 au005 avant au062
7 257 au006 avant au256
8 308 au007 avant au307
9 158 au008 avant au157
11 24 au010 avant au023
11 27 au010 avant au026
11 34 au010 avant au033
12 30 au011 avant au029
13 39 au012 avant au038
14 40 au013 avant au039
15 33 au014 avant au032
17 25 au016 avant au024
17 32 au016 avant au031
18 36 au017 avant au035
18 38 au017 avant au037
19 23 au018 avant au022
19 26 au018 avant au025
20 31 au019 avant au030
20 35 au019 avant au034
20 37 au019 avant au036
21 28 au020 avant au027
22 29 au021 avant au028
23 153 au022 avant au152
24 226 au023 avant au225
25 63 au024 avant au062
26 63 au025 avant au062
27 63 au026 avant au062
28 63 au027 avant au062
29 257 au028 avant au256
30 158 au029 avant au157
31 52 au030 avant au051
32 45 au031 avant au044
32 60 au031 avant au059
33 42 au032 avant au041
33 49 au032 avant au048
33 53 au032 avant au052
33 54 au032 avant au053
33 99 au032 avant au098
34 41 au033 avant au040
34 51 au033 avant au050
34 59 au033 avant au058
35 57 au034 avant au056
36 43 au035 avant au042
37 46 au036 avant au045
37 48 au036 avant au047
37 56 au036 avant au055
38 47 au037 avant au046
38 50 au037 avant au049
38 58 au037 avant au057
39 44 au038 avant au043
39 55 au038 avant au054
41 226 au040 avant au225
42 226 au041 avant au225
43 63 au042 avant au062
44 257 au043 avant au256
46 62 au045 avant au061
47 61 au046 avant au060
47 65 au046 avant au064
47 76 au046 avant au075
49 69 au048 avant au068
53 66 au052 avant au065
53 74 au052 avant au073
54 73 au053 avant au072
55 71 au054 avant au070
56 67 au055 avant au066
57 72 au056 avant au071
59 68 au058 avant au067
59 70 au058 avant au069
59 240 au058 avant au239
60 64 au059 avant au063
60 75 au059 avant au074
61 153 au060 avant au152
62 153 au061 avant au152
63 78 au062 avant au077
63 79 au062 avant au078
63 80 au062 avant au079
63 81 au062 avant au080
63 82 au062 avant au081
63 83 au062 avant au082
64 158 au063 avant au157
65 158 au064 avant au157
67 90 au066 avant au089
68 88 au067 avant au087
68 92 au067 avant au091
68 95 au067 avant au094
68 96 au067 avant au095
69 91 au068 avant au090
70 86 au069 avant au085
70 98 au069 avant au097
71 84 au070 avant au083
71 93 au070 avant au092
71 94 au070 avant au093
72 87 au071 avant au086
72 97 au071 avant au096
73 85 au072 avant au084
75 77 au074 avant au076
76 89 au075 avant au088
77 153 au076 avant au152
78 101 au077 avant au100
78 109 au077 avant au108
80 111 au079 avant au110
81 112 au080 avant au111
81 116 au080 avant au115
81 320 au080 avant au319
85 102 au084 avant au101
86 117 au085 avant au116
87 103 au086 avant au102
89 115 au088 avant au114
89 162 au088 avant au161
90 104 au089 avant au103
90 105 au089 avant au104
90 106 au089 avant au105
92 113 au091 avant au112
94 100 au093 avant au099
94 110 au093 avant au109
94 114 au093 avant au113
97 107 au096 avant au106
98 99 au097 avant au098
98 108 au097 avant au107
99 153 au098 avant au152
101 158 au100 avant au157
103 128 au102 avant au127
103 129 au102 avant au128
104 124 au103 avant au123
104 125 au103 avant au124
106 120 au105 avant au119
106 127 au105 avant au126
109 119 au108 avant au118
109 131 au108 avant au130
110 118 au109 avant au117
111 121 au110 avant au120
111 130 au110 avant au129
112 122 au111 avant au121
115 123 au114 avant au122
117 126 au116 avant au125
118 153 au117 avant au152
119 226 au118 avant au225
121 158 au120 avant au157
122 141 au121 avant au140
122 143 au121 avant au142
123 133 au122 avant au132
123 138 au122 avant au137
123 142 au122 avant au141
123 145 au122 avant au144
124 151 au123 avant au150
125 134 au124 avant au133
125 150 au124 avant au149
126 132 au125 avant au131
126 136 au125 avant au135
126 139 au125 avant au138
126 152 au125 avant au151
127 148 au126 avant au147
127 149 au126 avant au148
129 137 au128 avant au136
129 147 au128 avant au146
130 146 au129 avant au145
131 135 au130 avant au134
131 140 au130 avant au139
131 144 au130 avant au143
132 153 au131 avant au152
133 226 au132 avant au225
136 308 au135 avant au307
137 158 au136 avant au157
138 158 au137 avant au157
139 168 au138 avant au167
141 155 au140 avant au154
141 161 au140 avant au160
144 154 au143 avant au153
144 164 au143 avant au163
145 156 au144 avant au155
145 159 au144 avant au158
146 163 au145 avant au162
147 162 au146 avant au161
147 166 au146 avant au165
148 160 au147 avant au159
149 157 au148 avant au156
151 167 au150 avant au166
152 165 au151 avant au164
153 169 au152 avant au168
153 170 au152 avant au169
153 171 au152 avant au170
153 172 au152 avant au171
153 173 au152 avant au172
153 174 au152 avant au173
153 187 au152 avant au186
154 226 au153 avant au225
158 175 au157 avant au174
158 176 au157 avant au175
158 177 au157 avant au176
158 178 au157 avant au177
158 179 au157 avant au178
158 180 au157 avant au179
158 186 au157 avant au185
159 181 au158 avant au180
162 184 au161 avant au183
162 185 au161 avant au184
163 182 au162 avant au181
163 183 au162 avant au182
167 188 au166 avant au187
169 191 au168 avant au190
169 193 au168 avant au192
169 201 au168 avant au200
172 199 au171 avant au198
172 208 au171 avant au207
172 209 au171 avant au208
174 197 au173 avant au196
178 200 au177 avant au199
179 206 au178 avant au205
179 207 au178 avant au206
181 189 au180 avant au188
181 194 au180 avant au193
181 302 au180 avant au301
182 190 au181 avant au189
183 196 au182 avant au195
184 192 au183 avant au191
185 195 au184 avant au194
187 198 au186 avant au197
187 202 au186 avant au201
187 203 au186 avant au202
188 204 au187 avant au203
188 205 au187 avant au204
189 226 au188 avant au225
190 308 au189 avant au307
197 220 au196 avant au219
197 223 au196 avant au222
198 210 au197 avant au209
200 215 au199 avant au214
201 213 au200 avant au212
201 219 au200 avant au218
202 217 au201 avant au216
202 221 au201 avant au220
203 225 au202 avant au224
204 224 au203 avant au223
205 216 au204 avant au215
205 222 au204 avant au221
206 212 au205 avant au211
207 214 au206 avant au213
209 211 au208 avant au210
209 218 au208 avant au217
210 226 au209 avant au225
211 308 au210 avant au307
213 230 au212 avant au229
213 231 au212 avant au230
213 232 au212 avant au231
213 238 au212 avant au237
213 247 au212 avant au246
216 240 au215 avant au239
216 243 au215 avant au242
217 242 au216 avant au241
218 244 au217 avant au243
219 227 au218 avant au226
220 234 au219 avant au233
220 236 au219 avant au235
222 229 au221 avant au228
222 233 au221 avant au232
222 235 au221 avant au234
222 237 au221 avant au236
222 239 au221 avant au238
222 241 au221 avant au240
223 246 au222 avant au245
223 248 au222 avant au247
225 228 au224 avant au227
225 245 au224 avant au244
225 337 au224 avant au336
226 249 au225 avant au248
226 250 au225 avant au249
226 251 au225 avant au250
226 252 au225 avant au251
226 253 au225 avant au252
226 254 au225 avant au253
226 255 au225 avant au254
226 256 au225 avant au255
227 257 au226 avant au256
230 261 au229 avant au260
230 267 au229 avant au266
231 258 au230 avant au257
233 270 au232 avant au269
234 263 au233 avant au262
234 269 au233 avant au268
239 262 au238 avant au261
239 265 au238 avant au264
240 259 au239 avant au258
241 266 au240 avant au265
242 264 au241 avant au263
243 271 au242 avant au270
248 260 au247 avant au259
248 268 au247 avant au267
251 282 au250 avant au281
252 278 au251 avant au277
252 284 au251 avant au283
254 279 au253 avant au278
255 283 au254 avant au282
257 272 au256 avant au271
257 273 au256 avant au272
257 274 au256 avant au273
257 275 au256 avant au274
257 276 au256 avant au275
257 285 au256 avant au284
259 287 au258 avant au286
264 288 au263 avant au287
265 286 au264 avant au285
266 280 au265 avant au279
267 361 au266 avant au360
269 281 au268 avant au280
269 289 au268 avant au288
270 277 au269 avant au276
271 319 au270 avant au318
274 294 au273 avant au293
274 299 au273 avant au298
275 290 au274 avant au289
275 291 au274 avant au290
278 301 au277 avant au300
280 296 au279 avant au295
280 305 au279 avant au304
281 300 au280 avant au299
282 293 au281 avant au292
282 295 au281 avant au294
285 297 au284 avant au296
286 302 au285 avant au301
287 292 au286 avant au291
288 303 au287 avant au302
288 306 au287 avant au305
289 298 au288 avant au297
289 304 au288 avant au303
290 308 au289 avant au307
293 319 au292 avant au318
295 310 au294 avant au309
296 313 au295 avant au312
297 311 au296 avant au310
297 322 au296 avant au321
298 309 au297 avant au308
298 314 au297 avant au313
298 318 au297 avant au317
301 312 au300 avant au311
301 321 au300 avant au320
302 315 au301 avant au314
304 320 au303 avant au319
305 316 au304 avant au315
305 317 au304 avant au316
306 307 au305 avant au306
308 324 au307 avant au323
308 325 au307 avant au324
308 326 au307 avant au325
308 327 au307 avant au326
308 328 au307 avant au327
309 332 au308 avant au331
309 338 au308 avant au337
311 323 au310 avant au322
311 330 au310 avant au329
312 331 au311 avant au330
312 336 au311 avant au335
313 333 au312 avant au332
314 329 au313 avant au328
316 339 au315 avant au338
316 341 au315 avant au340
322 334 au321 avant au333
322 335 au321 avant au334
322 337 au321 avant au336
322 340 au321 avant au339
325 352 au324 avant au351
326 346 au325 avant au345
327 342 au326 avant au341
328 347 au327 avant au346
330 344 au329 avant au343
331 348 au330 avant au347
333 343 au332 avant au342
333 351 au332 avant au350
333 357 au332 avant au356
334 349 au333 avant au348
335 353 au334 avant au352
339 345 au338 avant au344
339 355 au338 avant au354
339 356 au338 avant au355
340 350 au339 avant au349
341 354 au340 avant au353
343 358 au342 avant au357
345 366 au344 avant au365
350 360 au349 avant au359
350 363 au349 avant au362
350 367 au349 avant au366
350 369 au349 avant au368
351 364 au350 avant au363
353 359 au352 avant au358
354 365 au353 avant au364
356 361 au355 avant au360
357 362 au356 avant au361
357 368 au356 avant au367
